num_workers = 5;
num_tasks = 8;
num_levels = 5;
P = 300;
N = 3;

worker_level = [4, 2, 5, 3, 1];

task_level = [3, 1, 4, 2, 5, 1, 2, 3];

fixed_cost = array2d(1..num_workers, 1..num_tasks, [
    15, 6, 12, 5, 10, 3, 8, 7,
    4, 9, 11, 2, 7, 13, 1, 6,
    14, 10, 8, 5, 16, 7, 9, 12,
    5, 11, 7, 6, 3, 2, 14, 8,
    6, 8, 3, 15, 7, 5, 11, 4
]);

time_cost = array2d(1..num_workers, 1..num_tasks, [
    4, 7, 5, 3, 2, 9, 6, 1,
    6, 2, 4, 8, 3, 5, 7, 10,
    5, 3, 8, 6, 9, 2, 7, 4,
    3, 6, 2, 7, 4, 1, 5, 9,
    7, 5, 3, 1, 8, 2, 6, 4
]);

task_time = [25, 40, 15, 30, 20, 35, 10, 50];

max_worker_time = [80, 90, 60, 70, 50];
